sat
(= |goto_symex::&92;guard#1| true)
(= |goto_symex::&92;guard#2| false)
(= |memory_model::choice_rf_1_36_0_10_T_0| false)
(= |memory_model::choice_rf_1_36_2_17_T_1| true)
(= |memory_model::choice_rf_1_36_3_38_T_2| false)
(= |memory_model::choice_rf_2_16_0_10_T_3| true)
(= |memory_model::choice_rf_2_16_1_37_T_4| false)
(= |memory_model::choice_rf_2_16_3_38_T_5| false)
(= |memory_model::choice_rf_3_37_0_10_T_6| false)
(= |memory_model::choice_rf_3_37_1_37_T_7| true)
(= |memory_model::choice_rf_3_37_2_17_T_8| false)
(= |memory_model::choice_rf_0_44_0_8_T_9| false)
(= |memory_model::choice_rf_0_44_0_40_T_10| true)
(= |memory_model::choice_rf_0_49_0_8_T_11| false)
(= |memory_model::choice_rf_0_49_0_40_T_12| false)
(= |memory_model::choice_rf_0_49_0_45_T_13| true)
(= |memory_model::choice_rf_1_20_0_36_F_14| true)
(= |memory_model::choice_rf_1_20_2_0_F_15| false)
(= |memory_model::choice_rf_0_53_0_11_F_16| false)
(= |memory_model::choice_rf_0_53_1_35_F_17| true)
(= |memory_model::choice_rf_0_53_2_15_F_18| false)
(= |memory_model::choice_rf_0_53_3_36_F_19| false)
(= |memory_model::choice_rf_1_34_0_11_F_20| false)
(= |memory_model::choice_rf_1_34_2_15_F_21| false)
(= |memory_model::choice_rf_1_34_3_36_F_22| true)
(= |memory_model::choice_rf_2_14_0_11_F_23| true)
(= |memory_model::choice_rf_2_14_1_35_F_24| false)
(= |memory_model::choice_rf_2_14_3_36_F_25| false)
(= |memory_model::choice_rf_3_35_0_11_F_26| false)
(= |memory_model::choice_rf_3_35_1_35_F_27| false)
(= |memory_model::choice_rf_3_35_2_15_F_28| true)
(= |memory_model::choice_rf_0_69_0_12_F_29| false)
(= |memory_model::choice_rf_0_69_1_21_F_30| true)
(= |memory_model::choice_rf_1_19_0_12_F_31| false)
(= |memory_model::choice_rf_0_71_0_13_F_32| false)
(= |memory_model::choice_rf_0_71_3_3_F_33| true)
(= |memory_model::choice_rf_0_70_0_14_F_34| false)
(= |memory_model::choice_rf_0_70_3_11_F_35| true)
(= |memory_model::choice_rf_0_56_0_15_F_36| false)
(= |memory_model::choice_rf_0_56_1_33_F_37| true)
(= |memory_model::choice_rf_0_56_2_13_F_38| false)
(= |memory_model::choice_rf_0_56_3_18_F_39| false)
(= |memory_model::choice_rf_0_56_3_34_F_40| false)
(= |memory_model::choice_rf_1_22_0_15_F_41| false)
(= |memory_model::choice_rf_1_22_0_67_F_42| false)
(= |memory_model::choice_rf_1_22_2_13_F_43| false)
(= |memory_model::choice_rf_1_22_3_18_F_44| false)
(= |memory_model::choice_rf_1_22_3_34_F_45| true)
(= |memory_model::choice_rf_2_2_0_15_F_46| true)
(= |memory_model::choice_rf_2_2_0_67_F_47| false)
(= |memory_model::choice_rf_2_2_1_33_F_48| false)
(= |memory_model::choice_rf_2_2_3_18_F_49| false)
(= |memory_model::choice_rf_2_2_3_34_F_50| false)
(= |memory_model::choice_rf_3_10_0_15_F_51| false)
(= |memory_model::choice_rf_3_10_0_67_F_52| false)
(= |memory_model::choice_rf_3_10_1_33_F_53| false)
(= |memory_model::choice_rf_3_10_2_13_F_54| true)
(= |memory_model::choice_rf_3_23_0_15_F_55| false)
(= |memory_model::choice_rf_3_23_0_67_F_56| false)
(= |memory_model::choice_rf_3_23_1_33_F_57| false)
(= |memory_model::choice_rf_3_23_2_13_F_58| false)
(= |memory_model::choice_rf_3_23_3_18_F_59| true)
(= |memory_model::choice_rf_0_61_0_18_F_60| true)
(= |memory_model::choice_rf_1_6_0_18_F_61| true)
(= |memory_model::choice_rf_1_6_0_64_F_62| false)
(= |memory_model::choice_rf_1_3_0_19_F_63| true)
(= |memory_model::choice_rf_1_27_0_19_F_64| false)
(= |memory_model::choice_rf_1_27_1_10_F_65| true)
(= |memory_model::choice_rf_1_1_0_20_F_66| true)
(= |memory_model::choice_rf_1_1_2_10_F_67| false)
(= |memory_model::choice_rf_2_7_0_20_F_68| true)
(= |memory_model::choice_rf_1_4_0_21_F_69| true)
(= |memory_model::choice_rf_1_4_3_12_F_70| false)
(= |memory_model::choice_rf_1_4_3_30_F_71| false)
(= |memory_model::choice_rf_3_7_0_21_F_72| true)
(= |memory_model::choice_rf_3_27_0_21_F_73| false)
(= |memory_model::choice_rf_3_27_3_12_F_74| true)
(= |memory_model::choice_rf_0_60_0_22_F_75| false)
(= |memory_model::choice_rf_0_60_1_13_F_76| true)
(= |memory_model::choice_rf_1_5_0_22_F_77| false)
(= |memory_model::choice_rf_1_5_0_63_F_78| false)
(= |memory_model::choice_rf_1_2_0_23_F_79| false)
(= |memory_model::choice_rf_1_26_0_23_F_80| false)
(= |memory_model::choice_rf_1_26_1_12_F_81| true)
(= |memory_model::choice_rf_1_0_0_24_F_82| false)
(= |memory_model::choice_rf_1_0_2_9_F_83| false)
(= |memory_model::choice_rf_2_6_0_24_F_84| false)
(= |memory_model::choice_rf_2_6_1_11_F_85| true)
(= |memory_model::choice_rf_1_7_0_25_F_86| false)
(= |memory_model::choice_rf_1_7_3_14_F_87| false)
(= |memory_model::choice_rf_1_7_3_32_F_88| false)
(= |memory_model::choice_rf_3_8_0_25_F_89| false)
(= |memory_model::choice_rf_3_8_1_14_F_90| true)
(= |memory_model::choice_rf_3_28_0_25_F_91| false)
(= |memory_model::choice_rf_3_28_1_14_F_92| false)
(= |memory_model::choice_rf_3_28_3_14_F_93| true)
(= |memory_model::choice_rf_0_59_0_28_F_94| false)
(= |memory_model::choice_rf_0_59_1_17_F_95| false)
(= |memory_model::choice_rf_0_59_3_17_F_96| true)
(= |memory_model::choice_rf_1_9_0_28_F_97| true)
(= |memory_model::choice_rf_1_9_3_17_F_98| false)
(= |memory_model::choice_rf_1_25_0_28_F_99| false)
(= |memory_model::choice_rf_1_25_1_17_F_100| false)
(= |memory_model::choice_rf_1_25_3_17_F_101| true)
(= |memory_model::choice_rf_2_5_0_28_F_102| false)
(= |memory_model::choice_rf_2_5_1_17_F_103| true)
(= |memory_model::choice_rf_2_5_3_17_F_104| false)
(= |memory_model::choice_rf_3_5_0_28_F_105| false)
(= |memory_model::choice_rf_3_5_1_17_F_106| true)
(= |memory_model::choice_rf_3_26_0_28_F_107| false)
(= |memory_model::choice_rf_3_26_1_17_F_108| false)
(= |memory_model::choice_rf_3_26_3_17_F_109| true)
(= |memory_model::choice_rf_0_62_0_29_F_110| false)
(= |memory_model::choice_rf_0_62_1_15_F_111| false)
(= |memory_model::choice_rf_0_62_1_32_F_112| true)
(= |memory_model::choice_rf_0_62_2_12_F_113| false)
(= |memory_model::choice_rf_0_62_3_15_F_114| false)
(= |memory_model::choice_rf_0_62_3_33_F_115| false)
(= |memory_model::choice_rf_1_8_0_29_F_116| true)
(= |memory_model::choice_rf_1_8_0_66_F_117| false)
(= |memory_model::choice_rf_1_8_2_12_F_118| false)
(= |memory_model::choice_rf_1_8_3_15_F_119| false)
(= |memory_model::choice_rf_1_8_3_33_F_120| false)
(= |memory_model::choice_rf_1_28_0_29_F_121| false)
(= |memory_model::choice_rf_1_28_0_66_F_122| false)
(= |memory_model::choice_rf_1_28_1_15_F_123| false)
(= |memory_model::choice_rf_1_28_2_12_F_124| false)
(= |memory_model::choice_rf_1_28_3_15_F_125| false)
(= |memory_model::choice_rf_1_28_3_33_F_126| true)
(= |memory_model::choice_rf_2_8_0_29_F_127| false)
(= |memory_model::choice_rf_2_8_0_66_F_128| false)
(= |memory_model::choice_rf_2_8_1_15_F_129| true)
(= |memory_model::choice_rf_2_8_1_32_F_130| false)
(= |memory_model::choice_rf_2_8_3_15_F_131| false)
(= |memory_model::choice_rf_2_8_3_33_F_132| false)
(= |memory_model::choice_rf_3_9_0_29_F_133| false)
(= |memory_model::choice_rf_3_9_0_66_F_134| false)
(= |memory_model::choice_rf_3_9_1_15_F_135| false)
(= |memory_model::choice_rf_3_9_1_32_F_136| false)
(= |memory_model::choice_rf_3_9_2_12_F_137| true)
(= |memory_model::choice_rf_3_29_0_29_F_138| false)
(= |memory_model::choice_rf_3_29_0_66_F_139| false)
(= |memory_model::choice_rf_3_29_1_15_F_140| false)
(= |memory_model::choice_rf_3_29_1_32_F_141| false)
(= |memory_model::choice_rf_3_29_2_12_F_142| false)
(= |memory_model::choice_rf_3_29_3_15_F_143| true)
(= |memory_model::choice_rf_0_57_0_30_F_144| false)
(= |memory_model::choice_rf_0_57_1_18_F_145| false)
(= |memory_model::choice_rf_0_57_3_16_F_146| true)
(= |memory_model::choice_rf_1_23_0_30_F_147| false)
(= |memory_model::choice_rf_1_23_1_18_F_148| false)
(= |memory_model::choice_rf_1_23_3_16_F_149| true)
(= |memory_model::choice_rf_2_3_0_30_F_150| false)
(= |memory_model::choice_rf_2_3_1_18_F_151| true)
(= |memory_model::choice_rf_2_3_3_16_F_152| false)
(= |memory_model::choice_rf_3_4_0_30_F_153| false)
(= |memory_model::choice_rf_3_4_1_18_F_154| true)
(= |memory_model::choice_rf_3_24_0_30_F_155| false)
(= |memory_model::choice_rf_3_24_1_18_F_156| false)
(= |memory_model::choice_rf_3_24_3_16_F_157| true)
(= |memory_model::choice_rf_0_58_0_31_F_158| false)
(= |memory_model::choice_rf_0_58_1_16_F_159| false)
(= |memory_model::choice_rf_0_58_1_31_F_160| true)
(= |memory_model::choice_rf_0_58_2_11_F_161| false)
(= |memory_model::choice_rf_0_58_3_13_F_162| false)
(= |memory_model::choice_rf_0_58_3_31_F_163| false)
(= |memory_model::choice_rf_1_24_0_31_F_164| false)
(= |memory_model::choice_rf_1_24_0_65_F_165| false)
(= |memory_model::choice_rf_1_24_1_16_F_166| false)
(= |memory_model::choice_rf_1_24_2_11_F_167| false)
(= |memory_model::choice_rf_1_24_3_13_F_168| false)
(= |memory_model::choice_rf_1_24_3_31_F_169| true)
(= |memory_model::choice_rf_2_4_0_31_F_170| false)
(= |memory_model::choice_rf_2_4_0_65_F_171| false)
(= |memory_model::choice_rf_2_4_1_16_F_172| true)
(= |memory_model::choice_rf_2_4_1_31_F_173| false)
(= |memory_model::choice_rf_2_4_3_13_F_174| false)
(= |memory_model::choice_rf_2_4_3_31_F_175| false)
(= |memory_model::choice_rf_3_6_0_31_F_176| false)
(= |memory_model::choice_rf_3_6_0_65_F_177| false)
(= |memory_model::choice_rf_3_6_1_16_F_178| false)
(= |memory_model::choice_rf_3_6_1_31_F_179| false)
(= |memory_model::choice_rf_3_6_2_11_F_180| true)
(= |memory_model::choice_rf_3_25_0_31_F_181| false)
(= |memory_model::choice_rf_3_25_0_65_F_182| false)
(= |memory_model::choice_rf_3_25_1_16_F_183| false)
(= |memory_model::choice_rf_3_25_1_31_F_184| false)
(= |memory_model::choice_rf_3_25_2_11_F_185| false)
(= |memory_model::choice_rf_3_25_3_13_F_186| true)
(= |memory_model::choice_rf_0_55_0_32_F_187| false)
(= |memory_model::choice_rf_0_55_0_54_F_188| true)
(= |memory_model::choice_rf_0_68_0_33_F_189| false)
(= |memory_model::choice_rf_0_74_0_33_F_190| false)
(= |memory_model::choice_rf_0_74_0_73_F_191| true)
(= |memory_model::choice_rf_0_75_0_33_F_192| false)
(= |memory_model::choice_rf_0_75_0_73_F_193| true)
(= |memory_model::choice_rf_0_72_0_37_F_194| false)
(= |memory_model::choice_rf_0_72_2_1_F_195| false)
(= |memory_model::choice_rf_0_72_3_0_F_196| true)
(= |memory_model::choice_rf_3_2_0_38_F_197| false)
(= |memory_model::choice_rf_3_2_3_1_F_198| true)
(= |memory_model::choice_ws-ext_0_10_1_37_T_199| true)
(= |memory_model::choice_ws-ext_0_10_2_17_T_200| true)
(= |memory_model::choice_ws-ext_0_10_3_38_T_201| true)
(= |memory_model::choice_ws-ext_1_37_2_17_T_202| false)
(= |memory_model::choice_ws-ext_1_37_3_38_T_203| true)
(= |memory_model::choice_ws-ext_2_17_3_38_T_204| true)
(= |memory_model::choice_ws-ext_0_36_2_0_F_205| true)
(= |memory_model::choice_ws-ext_0_11_1_35_F_206| true)
(= |memory_model::choice_ws-ext_0_11_2_15_F_207| true)
(= |memory_model::choice_ws-ext_0_11_3_36_F_208| true)
(= |memory_model::choice_ws-ext_1_35_2_15_F_209| false)
(= |memory_model::choice_ws-ext_1_35_3_36_F_210| false)
(= |memory_model::choice_ws-ext_2_15_3_36_F_211| true)
(= |memory_model::choice_ws-ext_0_12_1_21_F_212| true)
(= |memory_model::choice_ws-ext_0_13_3_3_F_213| true)
(= |memory_model::choice_ws-ext_0_14_3_11_F_214| true)
(= |memory_model::choice_ws-ext_0_15_1_33_F_215| true)
(= |memory_model::choice_ws-ext_0_15_2_13_F_216| true)
(= |memory_model::choice_ws-ext_0_15_3_18_F_217| true)
(= |memory_model::choice_ws-ext_0_15_3_34_F_218| true)
(= |memory_model::choice_ws-ext_0_67_1_33_F_219| false)
(= |memory_model::choice_ws-ext_0_67_2_13_F_220| false)
(= |memory_model::choice_ws-ext_0_67_3_18_F_221| false)
(= |memory_model::choice_ws-ext_0_67_3_34_F_222| false)
(= |memory_model::choice_ws-ext_1_33_2_13_F_223| false)
(= |memory_model::choice_ws-ext_1_33_3_18_F_224| false)
(= |memory_model::choice_ws-ext_1_33_3_34_F_225| false)
(= |memory_model::choice_ws-ext_2_13_3_18_F_226| true)
(= |memory_model::choice_ws-ext_2_13_3_34_F_227| true)
(= |memory_model::choice_ws-ext_0_16_3_21_F_228| true)
(= |memory_model::choice_ws-ext_0_17_3_19_F_229| true)
(= |memory_model::choice_ws-ext_0_19_1_10_F_230| true)
(= |memory_model::choice_ws-ext_0_19_1_30_F_231| true)
(= |memory_model::choice_ws-ext_0_20_2_10_F_232| true)
(= |memory_model::choice_ws-ext_0_21_3_12_F_233| true)
(= |memory_model::choice_ws-ext_0_21_3_30_F_234| true)
(= |memory_model::choice_ws-ext_0_22_1_13_F_235| true)
(= |memory_model::choice_ws-ext_0_63_1_13_F_236| false)
(= |memory_model::choice_ws-ext_0_23_1_12_F_237| true)
(= |memory_model::choice_ws-ext_0_23_1_29_F_238| true)
(= |memory_model::choice_ws-ext_0_24_1_11_F_239| true)
(= |memory_model::choice_ws-ext_0_24_2_9_F_240| true)
(= |memory_model::choice_ws-ext_1_11_2_9_F_241| true)
(= |memory_model::choice_ws-ext_0_25_1_14_F_242| true)
(= |memory_model::choice_ws-ext_0_25_3_14_F_243| true)
(= |memory_model::choice_ws-ext_0_25_3_32_F_244| true)
(= |memory_model::choice_ws-ext_1_14_3_14_F_245| true)
(= |memory_model::choice_ws-ext_1_14_3_32_F_246| true)
(= |memory_model::choice_ws-ext_0_28_1_17_F_247| true)
(= |memory_model::choice_ws-ext_0_28_3_17_F_248| true)
(= |memory_model::choice_ws-ext_1_17_3_17_F_249| true)
(= |memory_model::choice_ws-ext_0_29_1_15_F_250| true)
(= |memory_model::choice_ws-ext_0_29_1_32_F_251| true)
(= |memory_model::choice_ws-ext_0_29_2_12_F_252| true)
(= |memory_model::choice_ws-ext_0_29_3_15_F_253| true)
(= |memory_model::choice_ws-ext_0_29_3_33_F_254| true)
(= |memory_model::choice_ws-ext_0_66_1_15_F_255| false)
(= |memory_model::choice_ws-ext_0_66_1_32_F_256| false)
(= |memory_model::choice_ws-ext_0_66_2_12_F_257| false)
(= |memory_model::choice_ws-ext_0_66_3_15_F_258| false)
(= |memory_model::choice_ws-ext_0_66_3_33_F_259| false)
(= |memory_model::choice_ws-ext_1_15_2_12_F_260| true)
(= |memory_model::choice_ws-ext_1_15_3_15_F_261| true)
(= |memory_model::choice_ws-ext_1_15_3_33_F_262| true)
(= |memory_model::choice_ws-ext_1_32_2_12_F_263| false)
(= |memory_model::choice_ws-ext_1_32_3_15_F_264| false)
(= |memory_model::choice_ws-ext_1_32_3_33_F_265| false)
(= |memory_model::choice_ws-ext_2_12_3_15_F_266| true)
(= |memory_model::choice_ws-ext_2_12_3_33_F_267| true)
(= |memory_model::choice_ws-ext_0_30_1_18_F_268| true)
(= |memory_model::choice_ws-ext_0_30_3_16_F_269| true)
(= |memory_model::choice_ws-ext_1_18_3_16_F_270| true)
(= |memory_model::choice_ws-ext_0_31_1_16_F_271| true)
(= |memory_model::choice_ws-ext_0_31_1_31_F_272| true)
(= |memory_model::choice_ws-ext_0_31_2_11_F_273| true)
(= |memory_model::choice_ws-ext_0_31_3_13_F_274| true)
(= |memory_model::choice_ws-ext_0_31_3_31_F_275| true)
(= |memory_model::choice_ws-ext_0_65_1_16_F_276| false)
(= |memory_model::choice_ws-ext_0_65_1_31_F_277| false)
(= |memory_model::choice_ws-ext_0_65_2_11_F_278| false)
(= |memory_model::choice_ws-ext_0_65_3_13_F_279| false)
(= |memory_model::choice_ws-ext_0_65_3_31_F_280| false)
(= |memory_model::choice_ws-ext_1_16_2_11_F_281| true)
(= |memory_model::choice_ws-ext_1_16_3_13_F_282| true)
(= |memory_model::choice_ws-ext_1_16_3_31_F_283| true)
(= |memory_model::choice_ws-ext_1_31_2_11_F_284| false)
(= |memory_model::choice_ws-ext_1_31_3_13_F_285| false)
(= |memory_model::choice_ws-ext_1_31_3_31_F_286| false)
(= |memory_model::choice_ws-ext_2_11_3_13_F_287| true)
(= |memory_model::choice_ws-ext_2_11_3_31_F_288| true)
(= |memory_model::choice_ws-ext_0_37_2_1_F_289| true)
(= |memory_model::choice_ws-ext_0_37_3_0_F_290| true)
(= |memory_model::choice_ws-ext_2_1_3_0_F_291| true)
(= |memory_model::choice_ws-ext_0_38_3_1_F_292| true)
(= |memory_model::choice_ws-ext_0_34_3_22_F_293| true)
(= |memory_model::choice_ws-ext_0_35_3_20_F_294| true)
(= |main$tmp_guard0#3| #b00000001)
(= |__CPROVER_next_thread_id#3| #b00000000000000000000000000000001)
(= |__CPROVER_next_thread_id#6| #b00000000000000000000000000000010)
(= |__unbuffered_cnt#2| #b00000000000000000000000000000011)
(= |a$w_buff0_used#2| #b00000000)
(= |a$r_buff0_thd0#2| #b00000000)
(= |a$w_buff0#2| #b00000000000000000000000000000001)
(= |a$w_buff1_used#2| #b00000000)
(= |a$r_buff1_thd0#2| #b00000000)
(= |a$w_buff1#2| #b00000000000000000000000000000000)
(= |a#2| #b00000000000000000000000000000001)
(= |a#4| #b00000000000000000000000000000001)
(= |a$w_buff0_used#6| #b00000000)
(= |a$w_buff1_used#6| #b00000000)
(= |a$r_buff0_thd0#8| #b00000000)
(= |a$r_buff1_thd0#7| #b00000000)
(= |y#2| #b00000000000000000000000000000010)
(= |__unbuffered_p0_EAX#2| #b00000000000000000000000000000000)
(= |__unbuffered_p2_EAX#2| #b00000000000000000000000000000001)
(= |__unbuffered_p2_EBX#2| #b00000000000000000000000000000000)
(= |main$tmp_guard1#2| #b00000000)
(= |main$tmp_guard1#3| #b10000000)
(= |main$tmp_guard1#6| #b00000000)
(= |pthread_create::1::this_thread_id!1@0#0| #b00000000000000000000000000000000)
(= |a$w_buff0#4| #b00000000000000000000000000000000)
(= |a$w_buff0_used#11| #b00000000)
(= |a$r_buff0_thd0#11| #b00000000)
(= |a$r_buff1_thd0#9| #b00000000)
(= |a$r_buff1_thd0#10| #b10000000)
(= |a$r_buff0_thd1#2| #b00000000)
(= |a$r_buff1_thd1#2| #b00000000)
(= |a$r_buff1_thd1#3| #b10000000)
(= |a$r_buff0_thd2#2| #b00000000)
(= |a$r_buff1_thd2#2| #b00000000)
(= |a$r_buff1_thd2#3| #b10000000)
(= |a$r_buff0_thd3#2| #b00000000)
(= |a$r_buff1_thd3#2| #b00000000)
(= |a$r_buff1_thd3#3| #b10000000)
(= |a$r_buff0_thd1#4| #b00000001)
(= |x#2| #b00000000000000000000000000000000)
(= |__unbuffered_p0_EAX#4| #b00000000000000000000000000000000)
(= |__unbuffered_p0_EAX#5| #b10000000000000000000000000000000)
(= |a$w_buff0_used#14| #b00000001)
(= |a$r_buff0_thd1#6| #b00000001)
(= |a$w_buff0#7| #b00000000000000000000000000000001)
(= |a$w_buff1_used#10| #b00000000)
(= |a$r_buff1_thd1#5| #b00000000)
(= |a$w_buff1#5| #b00000000000000000000000000000000)
(= |a#6| #b00000000000000000000000000000000)
(= |a#8| #b00000000000000000000000000000001)
(= |a$w_buff0_used#18| #b00000000)
(= |a$w_buff1_used#14| #b00000000)
(= |a$r_buff0_thd1#12| #b00000001)
(= |a$r_buff1_thd1#10| #b00000000)
(= |__unbuffered_cnt#4| #b00000000000000000000000000000010)
(= |__unbuffered_cnt#6| #b00000000000000000000000000000011)
(= |pthread_create::1::this_thread_id!2@0#0| #b00000000000000000000000000000000)
(= |a$w_buff0_used#23| #b00000001)
(= |a$r_buff0_thd2#4| #b00000000)
(= |a$w_buff0#9| #b00000000000000000000000000000001)
(= |a$w_buff1_used#17| #b00000000)
(= |a$r_buff1_thd2#5| #b00000000)
(= |a$w_buff1#7| #b00000000000000000000000000000000)
(= |a#10| #b00000000000000000000000000000000)
(= |__unbuffered_cnt#8| #b00000000000000000000000000000000)
(= |pthread_create::1::this_thread_id!3@0#0| #b00000000000000000000000000000000)
(= |z#3| #b00000000000000000000000000000001)
(= |nondet_symex::nondet3| #b10000000000000000000000000000000)
(= |a#13| #b00000000000000000000000000000000)
(= |a$w_buff0_used#26| #b00000001)
(= |a$r_buff0_thd3#4| #b00000000)
(= |a$w_buff1_used#20| #b00000000)
(= |a$r_buff1_thd3#5| #b00000000)
(= |a$w_buff0#11| #b00000000000000000000000000000001)
(= |a$w_buff1#9| #b00000000000000000000000000000000)
(= |a$w_buff0_used#29| #b00000001)
(= |a$r_buff0_thd3#7| #b00000000)
(= |a$w_buff0#14| #b00000000000000000000000000000001)
(= |a$w_buff1_used#23| #b00000000)
(= |a$r_buff1_thd3#8| #b00000000)
(= |a$w_buff1#12| #b00000000000000000000000000000000)
(= |a#17| #b00000000000000000000000000000000)
(= |__unbuffered_cnt#11| #b00000000000000000000000000000001)
(= |__CPROVER_threads_exited#1$wclk$8| #b00001010)
(= |__CPROVER_threads_exited#2$rclk$8| #b10110110)
(= |__CPROVER_threads_exited#5$wclk$8| #b10110001)
(= |__CPROVER_threads_exited#7$wclk$8| #b11110001)
(= |__CPROVER_threads_exited#4$rclk$8| #b10110000)
(= |__CPROVER_threads_exited#3$wclk$8| #b10110111)
(= |__CPROVER_threads_exited#6$rclk$8| #b11110000)
(= |x#1$wclk$8| #b00111000)
(= |x#2$rclk$8| #b01111111)
(= |x#4$wclk$8| #b10011001)
(= |__unbuffered_cnt#7$wclk$8| #b10101111)
(= |__unbuffered_cnt#2$rclk$8| #b11100001)
(= |__unbuffered_cnt#10$wclk$8| #b10100000)
(= |__unbuffered_cnt#13$wclk$8| #b10100101)
(= |__unbuffered_cnt#1$wclk$8| #b00001011)
(= |__unbuffered_cnt#4$rclk$8| #b10101111)
(= |__unbuffered_cnt#8$rclk$8| #b10100000)
(= |__unbuffered_cnt#11$rclk$8| #b10100101)
(= |__unbuffered_p0_EAX#6$wclk$8| #b01111111)
(= |__unbuffered_p0_EAX#2$rclk$8| #b11101001)
(= |__unbuffered_p0_EAX#1$wclk$8| #b00001100)
(= |__unbuffered_p0_EAX#5$rclk$8| #b01111111)
(= |__unbuffered_p2_EAX#4$wclk$8| #b10100010)
(= |__unbuffered_p2_EAX#2$rclk$8| #b11101001)
(= |__unbuffered_p2_EBX#4$wclk$8| #b10100011)
(= |__unbuffered_p2_EBX#2$rclk$8| #b11101001)
(= |a#9$wclk$8| #b10101110)
(= |a#2$rclk$8| #b11100011)
(= |a#12$wclk$8| #b10011101)
(= |a#16$wclk$8| #b10100011)
(= |a#19$wclk$8| #b10100100)
(= |a#1$wclk$8| #b00010000)
(= |a#6$rclk$8| #b10101110)
(= |a#5$wclk$8| #b11100011)
(= |a#10$rclk$8| #b10011101)
(= |a#13$rclk$8| #b10100011)
(= |a#17$rclk$8| #b10100100)
(= |a$r_buff0_thd0#1$wclk$8| #b00010011)
(= |a$r_buff0_thd0#11$rclk$8| #b00111111)
(= |a$r_buff0_thd0#10$wclk$8| #b11100011)
(= |a$r_buff0_thd1#1$wclk$8| #b00010100)
(= |a$r_buff0_thd1#2$rclk$8| #b00111111)
(= |a$r_buff0_thd1#6$rclk$8| #b10101110)
(= |a$r_buff0_thd2#1$wclk$8| #b00010101)
(= |a$r_buff0_thd2#2$rclk$8| #b00111111)
(= |a$r_buff0_thd2#6$wclk$8| #b10011101)
(= |a$r_buff0_thd2#4$rclk$8| #b10011101)
(= |a$r_buff0_thd3#1$wclk$8| #b00010110)
(= |a$r_buff0_thd3#2$rclk$8| #b00111111)
(= |a$r_buff0_thd3#6$wclk$8| #b10100011)
(= |a$r_buff0_thd3#9$wclk$8| #b10100100)
(= |a$r_buff0_thd3#4$rclk$8| #b10100011)
(= |a$r_buff0_thd3#7$rclk$8| #b10100100)
(= |a$r_buff1_thd0#11$wclk$8| #b00111111)
(= |a$r_buff1_thd0#2$rclk$8| #b11100011)
(= |a$r_buff1_thd0#1$wclk$8| #b00010111)
(= |a$r_buff1_thd0#10$rclk$8| #b00111111)
(= |a$r_buff1_thd0#8$wclk$8| #b11100011)
(= |a$r_buff1_thd1#1$wclk$8| #b00011000)
(= |a$r_buff1_thd1#3$rclk$8| #b00111111)
(= |a$r_buff1_thd1#5$rclk$8| #b10101110)
(= |a$r_buff1_thd2#1$wclk$8| #b00011001)
(= |a$r_buff1_thd2#3$rclk$8| #b00111111)
(= |a$r_buff1_thd2#7$wclk$8| #b10011101)
(= |a$r_buff1_thd2#5$rclk$8| #b10011101)
(= |a$r_buff1_thd2#4$wclk$8| #b00111111)
(= |a$r_buff1_thd3#1$wclk$8| #b00011010)
(= |a$r_buff1_thd3#3$rclk$8| #b00111111)
(= |a$r_buff1_thd3#7$wclk$8| #b10100011)
(= |a$r_buff1_thd3#10$wclk$8| #b10100100)
(= |a$r_buff1_thd3#5$rclk$8| #b10100011)
(= |a$r_buff1_thd3#4$wclk$8| #b00111111)
(= |a$r_buff1_thd3#8$rclk$8| #b10100100)
(= |a$w_buff0#6$wclk$8| #b00111111)
(= |a$w_buff0#2$rclk$8| #b11100011)
(= |a$w_buff0#13$wclk$8| #b10100011)
(= |a$w_buff0#1$wclk$8| #b00011101)
(= |a$w_buff0#4$rclk$8| #b00111111)
(= |a$w_buff0#7$rclk$8| #b10101110)
(= |a$w_buff0#9$rclk$8| #b10011101)
(= |a$w_buff0#11$rclk$8| #b10100011)
(= |a$w_buff0#14$rclk$8| #b10100100)
(= |a$w_buff0_used#13$wclk$8| #b00111111)
(= |a$w_buff0_used#2$rclk$8| #b11100011)
(= |a$w_buff0_used#22$wclk$8| #b10101110)
(= |a$w_buff0_used#25$wclk$8| #b10011101)
(= |a$w_buff0_used#28$wclk$8| #b10100011)
(= |a$w_buff0_used#31$wclk$8| #b10100100)
(= |a$w_buff0_used#1$wclk$8| #b00101110)
(= |a$w_buff0_used#11$rclk$8| #b00111111)
(= |a$w_buff0_used#10$wclk$8| #b11100011)
(= |a$w_buff0_used#14$rclk$8| #b10101110)
(= |a$w_buff0_used#23$rclk$8| #b10011101)
(= |a$w_buff0_used#26$rclk$8| #b10100011)
(= |a$w_buff0_used#29$rclk$8| #b10100100)
(= |a$w_buff1#4$wclk$8| #b00111111)
(= |a$w_buff1#2$rclk$8| #b11100011)
(= |a$w_buff1#11$wclk$8| #b10100011)
(= |a$w_buff1#1$wclk$8| #b00101111)
(= |a$w_buff1#5$rclk$8| #b10101110)
(= |a$w_buff1#7$rclk$8| #b10011101)
(= |a$w_buff1#9$rclk$8| #b10100011)
(= |a$w_buff1#12$rclk$8| #b10100100)
(= |a$w_buff1_used#9$wclk$8| #b00111111)
(= |a$w_buff1_used#2$rclk$8| #b11100011)
(= |a$w_buff1_used#16$wclk$8| #b10101110)
(= |a$w_buff1_used#19$wclk$8| #b10011101)
(= |a$w_buff1_used#22$wclk$8| #b10100011)
(= |a$w_buff1_used#25$wclk$8| #b10100100)
(= |a$w_buff1_used#1$wclk$8| #b00110000)
(= |a$w_buff1_used#10$rclk$8| #b10101110)
(= |a$w_buff1_used#8$wclk$8| #b11100011)
(= |a$w_buff1_used#17$rclk$8| #b10011101)
(= |a$w_buff1_used#20$rclk$8| #b10100011)
(= |a$w_buff1_used#23$rclk$8| #b10100100)
(= |main$tmp_guard1#5| #b00000000)
(= |y#4$wclk$8| #b10011010)
(= |y#2$rclk$8| #b11101001)
(= |y#5$wclk$8| #b10011101)
(= |z#1$wclk$8| #b00111010)
(= |z#3$rclk$8| #b10100010)
(= |__unbuffered_p2_EAX#1$wclk$8| #b00001101)
(= |__unbuffered_p2_EBX#1$wclk$8| #b00001110)
(= |a$flush_delayed#1$wclk$8| #b00010001)
(= |a$flush_delayed#3$wclk$8| #b10100011)
(= |a$mem_tmp#1$wclk$8| #b00010010)
(= |a$mem_tmp#2$wclk$8| #b10100011)
(= |a$r_buff0_thd1#5$wclk$8| #b00111111)
(= |a$r_buff0_thd1#14$wclk$8| #b10101110)
(= |a$r_buff1_thd1#4$wclk$8| #b00111111)
(= |a$r_buff1_thd1#11$wclk$8| #b10101110)
(= |y#1$wclk$8| #b00111001)
(= |z#2$wclk$8| #b10011111)
(= |weak$$choice0#1$wclk$8| #b00110100)
(= |weak$$choice0#2$wclk$8| #b10100011)
(= |weak$$choice2#1$wclk$8| #b00110101)
(= |weak$$choice2#2$wclk$8| #b10100011)
(= t1$42$spwnclk$8 #b00111110)
(= t1$47$spwnclk$8 #b10011000)
(= t1$52$spwnclk$8 #b10011100)
(= |main::1::t1108!0@1$wclk$8| #b00000000)
(= |main::1::t1109!0@1$wclk$8| #b00000001)
(= |__CPROVER_dead_object#1$wclk$8| #b00000010)
(= |__CPROVER_deallocated#1$wclk$8| #b00000011)
(= |__CPROVER_malloc_is_new_array#1$wclk$8| #b00000100)
(= |__CPROVER_malloc_object#1$wclk$8| #b00000101)
(= |__CPROVER_malloc_size#1$wclk$8| #b00000110)
(= |__CPROVER_memory_leak#1$wclk$8| #b00000111)
(= |__CPROVER_next_thread_id#1$wclk$8| #b00001000)
(= |__CPROVER_pipe_count#1$wclk$8| #b00001001)
(= |a$read_delayed#1$wclk$8| #b00011011)
(= |a$read_delayed_var#1$wclk$8| #b00011100)
(= |main$tmp_guard0#1$wclk$8| #b00110001)
(= |main$tmp_guard1#1$wclk$8| #b00110011)
(= |main::1::t1107!0@1#1$wclk$8| #b00111011)
(= |__CPROVER_next_thread_id#2$wclk$8| #b00111100)
(= |main::1::t1107!0@1#2$wclk$8| #b00111101)
(= |main::1::t1108!0@1#1$wclk$8| #b00111111)
(= |__CPROVER_next_thread_id#3$rclk$8| #b10001000)
(= |__CPROVER_next_thread_id#5$wclk$8| #b10001000)
(= |main::1::t1108!0@1#2$wclk$8| #b10001010)
(= |main::1::t1109!0@1#1$wclk$8| #b10011001)
(= |__CPROVER_next_thread_id#6$rclk$8| #b10011010)
(= |__CPROVER_next_thread_id#8$wclk$8| #b10011010)
(= |main::1::t1109!0@1#2$wclk$8| #b10011011)
(= |main$tmp_guard0#2$wclk$8| #b11100001)
(= |main$tmp_guard0#3$rclk$8| #b11100010)
(= |a$r_buff0_thd0#2$rclk$8| #b11100011)
(= |main$tmp_guard1#3$rclk$8| #b11101001)
(= |main$tmp_guard1#4$wclk$8| #b11101001)
(= |main$tmp_guard1#5$rclk$8| #b11101011)
(= |main$tmp_guard1#6$rclk$8| #b11101100)
(= array_of.0 @fun_7)
(= |__CPROVER_threads_exited#2| @fun_5)
(= |__CPROVER_threads_exited#4| @fun_7)
(= |__CPROVER_threads_exited#6| @fun_5)
(function @fun_7
 (type (Array (_ BitVec 32) (_ BitVec 1)))
 (= (@fun_7 #b00000000000000000000000000000000) #b0)
 (default #b1))
(function @fun_5
 (type (Array (_ BitVec 32) (_ BitVec 1)))
 (default #b1))

real	0m0.023s
user	0m0.016s
sys	0m0.007s
State: AC Run_time: 0.025023698806762695